
Gurobi 7.0.1 (linux64) logging started Tue Dec  6 19:16:29 2016


Gurobi 7.0.1 (linux64) logging started Tue Dec  6 19:16:40 2016


Gurobi Optimizer version 7.0.1 build v7.0.1rc0 (linux64)
Copyright (c) 2016, Gurobi Optimization, Inc.


ERROR 10003: Unable to open file 'project.lp' for input


Gurobi 7.0.1 (linux64) logging started Tue Dec  6 19:17:42 2016


Gurobi Optimizer version 7.0.1 build v7.0.1rc0 (linux64)
Copyright (c) 2016, Gurobi Optimization, Inc.


ERROR 10003: Unable to open file '/asf/cad/u/d/l/dl369/gurobi701/l' for input


Gurobi 7.0.1 (linux64) logging started Tue Dec  6 19:18:56 2016


Gurobi Optimizer version 7.0.1 build v7.0.1rc0 (linux64)
Copyright (c) 2016, Gurobi Optimization, Inc.

Read LP format model from file /afs/cad/u/d/l/dl369/gurobi701/linux64/examples/data/project.lp
Reading time = 0.00 seconds
: 2 rows, 10 columns, 20 nonzeros
Optimize a model with 2 rows, 10 columns and 20 nonzeros
Variable types: 0 continuous, 10 integer (0 binary)
Coefficient statistics:
  Matrix range     [2e-01, 1e+00]
  Objective range  [9e-02, 1e-01]
  Bounds range     [1e+01, 1e+03]
  RHS range        [2e+02, 1e+03]
Presolve removed 0 rows and 2 columns
Presolve time: 0.00s
Presolved: 2 rows, 8 columns, 15 nonzeros
Variable types: 0 continuous, 8 integer (0 binary)
Found heuristic solution: objective 99.9400000
Found heuristic solution: objective 106.3700000

Root relaxation: objective 1.064000e+02, 4 iterations, 0.00 seconds

    Nodes    |    Current Node    |     Objective Bounds      |     Work
 Expl Unexpl |  Obj  Depth IntInf | Incumbent    BestBd   Gap | It/Node Time

*    0     0               0     106.4000000  106.40000  0.00%     -    0s

Explored 0 nodes (4 simplex iterations) in 0.00 seconds
Thread count was 2 (of 2 available processors)

Solution count 3: 106.4 106.37 99.94 
Pool objective bound 106.4

Optimal solution found (tolerance 1.00e-04)
Best objective 1.064000000000e+02, best bound 1.064000000000e+02, gap 0.0000%

Gurobi 7.0.1 (linux64) logging started Tue Dec  6 19:19:36 2016


Gurobi Optimizer version 7.0.1 build v7.0.1rc0 (linux64)
Copyright (c) 2016, Gurobi Optimization, Inc.

Read LP format model from file project.lp
Reading time = 0.00 seconds
: 2 rows, 10 columns, 20 nonzeros
Optimize a model with 2 rows, 10 columns and 20 nonzeros
Variable types: 0 continuous, 10 integer (0 binary)
Coefficient statistics:
  Matrix range     [2e-01, 1e+00]
  Objective range  [9e-02, 1e-01]
  Bounds range     [1e+01, 1e+03]
  RHS range        [2e+02, 1e+03]
Presolve removed 0 rows and 2 columns
Presolve time: 0.00s
Presolved: 2 rows, 8 columns, 15 nonzeros
Variable types: 0 continuous, 8 integer (0 binary)
Found heuristic solution: objective 99.9400000
Found heuristic solution: objective 106.3700000

Root relaxation: objective 1.064000e+02, 4 iterations, 0.00 seconds

    Nodes    |    Current Node    |     Objective Bounds      |     Work
 Expl Unexpl |  Obj  Depth IntInf | Incumbent    BestBd   Gap | It/Node Time

*    0     0               0     106.4000000  106.40000  0.00%     -    0s

Explored 0 nodes (4 simplex iterations) in 0.00 seconds
Thread count was 2 (of 2 available processors)

Solution count 3: 106.4 106.37 99.94 
Pool objective bound 106.4

Optimal solution found (tolerance 1.00e-04)
Best objective 1.064000000000e+02, best bound 1.064000000000e+02, gap 0.0000%

Gurobi 7.0.1 (linux64) logging started Tue Dec  6 19:21:43 2016


Gurobi Optimizer version 7.0.1 build v7.0.1rc0 (linux64)
Copyright (c) 2016, Gurobi Optimization, Inc.

Read LP format model from file project.lp
Reading time = 0.00 seconds
: 2 rows, 10 columns, 20 nonzeros
Optimize a model with 2 rows, 10 columns and 20 nonzeros
Variable types: 0 continuous, 10 integer (0 binary)
Coefficient statistics:
  Matrix range     [2e-01, 1e+00]
  Objective range  [9e-02, 1e-01]
  Bounds range     [1e+01, 1e+03]
  RHS range        [2e+02, 1e+03]
Presolve removed 0 rows and 2 columns
Presolve time: 0.00s
Presolved: 2 rows, 8 columns, 15 nonzeros
Variable types: 0 continuous, 8 integer (0 binary)
Found heuristic solution: objective 99.9400000
Found heuristic solution: objective 106.3700000

Root relaxation: objective 1.064000e+02, 4 iterations, 0.00 seconds

    Nodes    |    Current Node    |     Objective Bounds      |     Work
 Expl Unexpl |  Obj  Depth IntInf | Incumbent    BestBd   Gap | It/Node Time

*    0     0               0     106.4000000  106.40000  0.00%     -    0s

Explored 0 nodes (4 simplex iterations) in 0.00 seconds
Thread count was 2 (of 2 available processors)

Solution count 3: 106.4 106.37 99.94 
Pool objective bound 106.4

Optimal solution found (tolerance 1.00e-04)
Best objective 1.064000000000e+02, best bound 1.064000000000e+02, gap 0.0000%

Gurobi 7.0.1 (linux64) logging started Tue Dec  6 19:27:28 2016


Gurobi Optimizer version 7.0.1 build v7.0.1rc0 (linux64)
Copyright (c) 2016, Gurobi Optimization, Inc.

Read LP format model from file project.lp
Reading time = 0.00 seconds
: 2 rows, 10 columns, 20 nonzeros
Optimize a model with 2 rows, 10 columns and 20 nonzeros
Variable types: 0 continuous, 10 integer (0 binary)
Coefficient statistics:
  Matrix range     [2e-01, 1e+00]
  Objective range  [9e-02, 1e-01]
  Bounds range     [1e+01, 1e+03]
  RHS range        [2e+02, 1e+03]
Presolve removed 0 rows and 2 columns
Presolve time: 0.00s
Presolved: 2 rows, 8 columns, 15 nonzeros
Variable types: 0 continuous, 8 integer (0 binary)
Found heuristic solution: objective 99.9400000
Found heuristic solution: objective 106.3700000

Root relaxation: objective 1.064000e+02, 4 iterations, 0.00 seconds

    Nodes    |    Current Node    |     Objective Bounds      |     Work
 Expl Unexpl |  Obj  Depth IntInf | Incumbent    BestBd   Gap | It/Node Time

*    0     0               0     106.4000000  106.40000  0.00%     -    0s

Explored 0 nodes (4 simplex iterations) in 0.00 seconds
Thread count was 2 (of 2 available processors)

Solution count 3: 106.4 106.37 99.94 
Pool objective bound 106.4

Optimal solution found (tolerance 1.00e-04)
Best objective 1.064000000000e+02, best bound 1.064000000000e+02, gap 0.0000%

Gurobi 7.0.1 (linux64) logging started Tue Dec  6 19:27:38 2016


Gurobi Optimizer version 7.0.1 build v7.0.1rc0 (linux64)
Copyright (c) 2016, Gurobi Optimization, Inc.

Read LP format model from file project.lp
Reading time = 0.00 seconds
: 2 rows, 10 columns, 20 nonzeros
Optimize a model with 2 rows, 10 columns and 20 nonzeros
Variable types: 0 continuous, 10 integer (0 binary)
Coefficient statistics:
  Matrix range     [2e-01, 1e+00]
  Objective range  [9e-02, 1e-01]
  Bounds range     [1e+01, 1e+03]
  RHS range        [2e+02, 1e+03]
Presolve removed 0 rows and 2 columns
Presolve time: 0.00s
Presolved: 2 rows, 8 columns, 15 nonzeros
Variable types: 0 continuous, 8 integer (0 binary)
Found heuristic solution: objective 99.9400000
Found heuristic solution: objective 106.3700000

Root relaxation: objective 1.064000e+02, 4 iterations, 0.00 seconds

    Nodes    |    Current Node    |     Objective Bounds      |     Work
 Expl Unexpl |  Obj  Depth IntInf | Incumbent    BestBd   Gap | It/Node Time

*    0     0               0     106.4000000  106.40000  0.00%     -    0s

Explored 0 nodes (4 simplex iterations) in 0.00 seconds
Thread count was 2 (of 2 available processors)

Solution count 3: 106.4 106.37 99.94 
Pool objective bound 106.4

Optimal solution found (tolerance 1.00e-04)
Best objective 1.064000000000e+02, best bound 1.064000000000e+02, gap 0.0000%

Gurobi 7.0.1 (linux64) logging started Wed Dec  7 16:31:58 2016


ERROR 10009: HostID mismatch (licensed to 56b4227e, hostid is 56b4227f) - license file '/afs/cad/u/d/l/dl369/gurobi.lic'


Gurobi 7.0.1 (linux64) logging started Wed Dec  7 16:32:04 2016


ERROR 10009: HostID mismatch (licensed to 56b4227e, hostid is 56b4227f) - license file '/afs/cad/u/d/l/dl369/gurobi.lic'


Gurobi 7.0.1 (linux64) logging started Wed Dec  7 16:33:45 2016


Gurobi Optimizer version 7.0.1 build v7.0.1rc0 (linux64)
Copyright (c) 2016, Gurobi Optimization, Inc.

Read LP format model from file project.lp
Reading time = 0.00 seconds
: 2 rows, 10 columns, 20 nonzeros
Optimize a model with 2 rows, 10 columns and 20 nonzeros
Variable types: 0 continuous, 10 integer (0 binary)
Coefficient statistics:
  Matrix range     [2e-01, 1e+00]
  Objective range  [9e-02, 1e-01]
  Bounds range     [1e+01, 1e+03]
  RHS range        [2e+02, 1e+03]
Presolve removed 0 rows and 2 columns
Presolve time: 0.00s
Presolved: 2 rows, 8 columns, 15 nonzeros
Variable types: 0 continuous, 8 integer (0 binary)
Found heuristic solution: objective 99.9400000
Found heuristic solution: objective 106.3700000

Root relaxation: objective 1.064000e+02, 4 iterations, 0.00 seconds

    Nodes    |    Current Node    |     Objective Bounds      |     Work
 Expl Unexpl |  Obj  Depth IntInf | Incumbent    BestBd   Gap | It/Node Time

*    0     0               0     106.4000000  106.40000  0.00%     -    0s

Explored 0 nodes (4 simplex iterations) in 0.60 seconds
Thread count was 2 (of 2 available processors)

Solution count 3: 106.4 106.37 99.94 
Pool objective bound 106.4

Optimal solution found (tolerance 1.00e-04)
Best objective 1.064000000000e+02, best bound 1.064000000000e+02, gap 0.0000%

Gurobi 7.0.1 (linux64) logging started Thu Dec  8 10:19:03 2016


Gurobi Optimizer version 7.0.1 build v7.0.1rc0 (linux64)
Copyright (c) 2016, Gurobi Optimization, Inc.

Read LP format model from file project.lp
Reading time = 0.04 seconds
: 2 rows, 10 columns, 20 nonzeros
Optimize a model with 2 rows, 10 columns and 20 nonzeros
Variable types: 0 continuous, 10 integer (0 binary)
Coefficient statistics:
  Matrix range     [2e-01, 1e+00]
  Objective range  [9e-02, 1e-01]
  Bounds range     [1e+01, 1e+03]
  RHS range        [2e+02, 1e+03]
Presolve removed 0 rows and 2 columns
Presolve time: 0.00s
Presolved: 2 rows, 8 columns, 15 nonzeros
Variable types: 0 continuous, 8 integer (0 binary)
Found heuristic solution: objective 99.9400000
Found heuristic solution: objective 106.3700000

Root relaxation: objective 1.064000e+02, 4 iterations, 0.02 seconds

    Nodes    |    Current Node    |     Objective Bounds      |     Work
 Expl Unexpl |  Obj  Depth IntInf | Incumbent    BestBd   Gap | It/Node Time

*    0     0               0     106.4000000  106.40000  0.00%     -    0s

Explored 0 nodes (4 simplex iterations) in 0.46 seconds
Thread count was 2 (of 2 available processors)

Solution count 3: 106.4 106.37 99.94 
Pool objective bound 106.4

Optimal solution found (tolerance 1.00e-04)
Best objective 1.064000000000e+02, best bound 1.064000000000e+02, gap 0.0000%

Wrote result file 'optimizer.sol'


Gurobi 7.0.1 (linux64) logging started Thu Dec  8 12:24:25 2016


Gurobi Optimizer version 7.0.1 build v7.0.1rc0 (linux64)
Copyright (c) 2016, Gurobi Optimization, Inc.

Read LP format model from file project.lp
Reading time = 0.00 seconds
: 2 rows, 10 columns, 20 nonzeros
Optimize a model with 2 rows, 10 columns and 20 nonzeros
Variable types: 0 continuous, 10 integer (0 binary)
Coefficient statistics:
  Matrix range     [2e-01, 1e+00]
  Objective range  [9e-02, 1e-01]
  Bounds range     [1e+01, 1e+03]
  RHS range        [2e+02, 1e+03]
Presolve removed 0 rows and 2 columns
Presolve time: 0.00s
Presolved: 2 rows, 8 columns, 15 nonzeros
Variable types: 0 continuous, 8 integer (0 binary)
Found heuristic solution: objective 99.9400000
Found heuristic solution: objective 106.3700000

Root relaxation: objective 1.064000e+02, 4 iterations, 0.00 seconds

    Nodes    |    Current Node    |     Objective Bounds      |     Work
 Expl Unexpl |  Obj  Depth IntInf | Incumbent    BestBd   Gap | It/Node Time

*    0     0               0     106.4000000  106.40000  0.00%     -    0s

Explored 0 nodes (4 simplex iterations) in 0.00 seconds
Thread count was 2 (of 2 available processors)

Solution count 3: 106.4 106.37 99.94 
Pool objective bound 106.4

Optimal solution found (tolerance 1.00e-04)
Best objective 1.064000000000e+02, best bound 1.064000000000e+02, gap 0.0000%

Wrote result file 'optimizer.sol'

